p cnf 22 53
a 9 18 0
e 1 2 3 4 5 6 7 8 10 11 12 13 14 15 16 17 19 20 21 22 0
-4 2 0
-4 3 0
-2 -3 4 0
5 -1 0
5 4 0
1 -4 -5 0
-7 6 0
-7 -1 0
-6 1 7 0
-5 7 -8 0
5 -7 -8 0
-5 -7 8 0
5 7 8 0
-2 9 0
2 9 0
-8 9 -10 0
8 -9 -10 0
-8 -9 10 0
8 9 10 0
11 12 -13 0
-11 -12 -13 0
11 -12 13 0
-11 12 13 0
15 13 0
15 -14 0
-13 14 -15 0
-15 -16 -17 0
15 16 -17 0
-15 16 17 0
15 -16 17 0
-18 -10 0
-18 -17 0
10 17 18 0
-2 -3 -19 0
2 3 -19 0
-2 3 19 0
2 -3 19 0
-20 -2 0
-20 -7 0
2 7 20 0
21 -19 0
21 20 0
19 -20 -21 0
-18 -21 -22 0
18 21 -22 0
-18 21 22 0
18 -21 22 0
-10 -12 0
-8 -10 -11 12 0
22 -6 -2 -13 15 -17 0
15 5 -7 -18 0
18 8 17 12 14 -22 0
22 0
